(set-info :smt-lib-version 2.6)
(set-logic QF_AUFBV)
(set-info :source |These benchmarks are derived from a semi-automated proof of functional equivalence between two implementations of an Elliptic Curve Digital Signature Algorithm (ECDSA). More information about problem they encode can be found here: http://cps-vo.org/node/3405|)
(set-info :category "industrial")
(set-info :status unsat)
(declare-fun x260 () (_ BitVec 1))
(declare-fun x258 () (_ BitVec 1))
(declare-fun x256 () (_ BitVec 1))
(declare-fun x254 () (_ BitVec 1))
(declare-fun x252 () (_ BitVec 1))
(declare-fun x250 () (_ BitVec 1))
(declare-fun x248 () (_ BitVec 1))
(declare-fun x246 () (_ BitVec 1))
(declare-fun x244 () (_ BitVec 1))
(declare-fun x242 () (_ BitVec 1))
(declare-fun x241 () (_ BitVec 1))
(declare-fun x240 () (_ BitVec 384))
(declare-fun x239 () (_ BitVec 384))
(declare-fun x238 () (_ BitVec 1))
(declare-fun x236 () (_ BitVec 1))
(declare-fun x234 () (_ BitVec 1))
(declare-fun x233 () (_ BitVec 1))
(declare-fun x232 () (_ BitVec 384))
(declare-fun x231 () (_ BitVec 1))
(declare-fun x229 () (_ BitVec 1))
(declare-fun x228 () (_ BitVec 1))
(declare-fun x226 () (_ BitVec 1))
(declare-fun x225 () (_ BitVec 1))
(declare-fun x224 () (_ BitVec 384))
(declare-fun x223 () (_ BitVec 384))
(declare-fun x221 () (_ BitVec 1))
(declare-fun x219 () (_ BitVec 1))
(declare-fun x217 () (_ BitVec 1))
(declare-fun x215 () (_ BitVec 1))
(declare-fun x213 () (_ BitVec 1))
(declare-fun x211 () (_ BitVec 1))
(declare-fun x209 () (_ BitVec 1))
(declare-fun x208 () (_ BitVec 1))
(declare-fun x207 () (_ BitVec 384))
(declare-fun x206 () (_ BitVec 1))
(declare-fun x204 () (_ BitVec 1))
(declare-fun x202 () (_ BitVec 1))
(declare-fun x201 () (_ BitVec 1))
(declare-fun x200 () (_ BitVec 384))
(declare-fun x198 () (_ BitVec 1))
(declare-fun x196 () (_ BitVec 1))
(declare-fun x195 () (_ BitVec 1))
(declare-fun x193 () (_ BitVec 1))
(declare-fun x192 () (_ BitVec 1))
(declare-fun x191 () (Array (_ BitVec 4) (_ BitVec 32)))
(declare-fun x189 () (_ BitVec 1))
(declare-fun x187 () (_ BitVec 1))
(declare-fun x186 () (_ BitVec 1))
(declare-fun x184 () (_ BitVec 1))
(declare-fun x182 () (_ BitVec 1))
(declare-fun x181 () (_ BitVec 1))
(declare-fun x180 () (_ BitVec 1))
(declare-fun x178 () (_ BitVec 1))
(declare-fun x176 () (_ BitVec 1))
(declare-fun x174 () (_ BitVec 1))
(declare-fun x172 () (_ BitVec 1))
(declare-fun x171 () (_ BitVec 1))
(declare-fun x170 () (_ BitVec 384))
(declare-fun x169 () (_ BitVec 384))
(declare-fun x168 () (_ BitVec 1))
(declare-fun x166 () (_ BitVec 1))
(declare-fun x164 () (_ BitVec 1))
(declare-fun x162 () (_ BitVec 1))
(declare-fun x161 () (_ BitVec 1))
(declare-fun x160 () (_ BitVec 384))
(declare-fun x159 () (_ BitVec 1))
(declare-fun x157 () (_ BitVec 1))
(declare-fun x156 () (_ BitVec 1))
(declare-fun x155 () (_ BitVec 384))
(declare-fun x154 () (_ BitVec 384))
(declare-fun x152 () (_ BitVec 1))
(declare-fun x150 () (_ BitVec 1))
(declare-fun x149 () (_ BitVec 1))
(declare-fun x147 () (_ BitVec 1))
(declare-fun x145 () (_ BitVec 1))
(declare-fun x143 () (_ BitVec 1))
(declare-fun x141 () (_ BitVec 1))
(declare-fun x139 () (_ BitVec 1))
(declare-fun x137 () (_ BitVec 1))
(declare-fun x135 () (_ BitVec 1))
(declare-fun x133 () (_ BitVec 1))
(declare-fun x132 () (_ BitVec 1))
(declare-fun x131 () (_ BitVec 384))
(declare-fun x130 () (_ BitVec 1))
(declare-fun x128 () (_ BitVec 1))
(declare-fun x127 () (_ BitVec 1))
(declare-fun x126 () (_ BitVec 384))
(declare-fun x125 () (_ BitVec 1152))
(declare-fun x124 ((_ BitVec 1152)) (_ BitVec 1152))
(declare-fun x123 () (_ BitVec 1152))
(declare-fun x122 () (_ BitVec 384))
(declare-fun x121 () (_ BitVec 384))
(declare-fun x120 () (_ BitVec 384))
(declare-fun x119 () (_ BitVec 384))
(declare-fun x117 () (_ BitVec 1))
(declare-fun x115 () (_ BitVec 1))
(declare-fun x114 () (_ BitVec 1))
(declare-fun x112 () (_ BitVec 1))
(declare-fun x111 () (_ BitVec 1))
(declare-fun x110 () (_ BitVec 384))
(declare-fun x109 () (_ BitVec 384))
(declare-fun x108 ((_ BitVec 384) (_ BitVec 384)) (_ BitVec 384))
(declare-fun x107 () (_ BitVec 384))
(declare-fun x106 () (_ BitVec 384))
(declare-fun x105 () (_ BitVec 384))
(declare-fun x104 () (_ BitVec 384))
(declare-fun x103 () (_ BitVec 384))
(declare-fun x102 () (_ BitVec 384))
(declare-fun x101 () (_ BitVec 384))
(declare-fun x100 () (_ BitVec 384))
(declare-fun x99 () (_ BitVec 384))
(declare-fun x98 () (_ BitVec 384))
(declare-fun x97 () (_ BitVec 384))
(declare-fun x96 () (_ BitVec 384))
(declare-fun x95 () (_ BitVec 384))
(declare-fun x94 () (_ BitVec 384))
(declare-fun x93 () (_ BitVec 384))
(declare-fun x92 () (_ BitVec 384))
(declare-fun x91 () (_ BitVec 384))
(declare-fun x90 () (_ BitVec 384))
(declare-fun x89 () (_ BitVec 384))
(declare-fun x88 () (_ BitVec 384))
(declare-fun x87 () (_ BitVec 384))
(declare-fun x86 () (_ BitVec 384))
(declare-fun x85 () (_ BitVec 384))
(declare-fun x84 () (_ BitVec 384))
(declare-fun x83 ((_ BitVec 384) (_ BitVec 384)) (_ BitVec 384))
(declare-fun x82 () (_ BitVec 384))
(declare-fun x81 () (_ BitVec 384))
(declare-fun x80 () (_ BitVec 384))
(declare-fun x79 () (_ BitVec 384))
(declare-fun x77 () (_ BitVec 1))
(declare-fun x75 () (_ BitVec 1))
(declare-fun x74 () (_ BitVec 1))
(declare-fun x73 () (_ BitVec 1))
(declare-fun x71 () (_ BitVec 1))
(declare-fun x69 () (_ BitVec 1))
(declare-fun x67 () (_ BitVec 1))
(declare-fun x65 () (_ BitVec 1))
(declare-fun x64 () (_ BitVec 1))
(declare-fun x63 () (_ BitVec 1))
(declare-fun x61 () (_ BitVec 1))
(declare-fun x59 () (_ BitVec 1))
(declare-fun x57 () (_ BitVec 1))
(declare-fun x55 () (_ BitVec 1))
(declare-fun x54 () (_ BitVec 1))
(declare-fun x52 () (_ BitVec 1))
(declare-fun x51 () (_ BitVec 1))
(declare-fun x50 () (_ BitVec 384))
(declare-fun x49 () (_ BitVec 384))
(declare-fun x48 () (_ BitVec 384))
(declare-fun x47 () (_ BitVec 384))
(declare-fun x46 () (_ BitVec 384))
(declare-fun x45 () (_ BitVec 384))
(declare-fun x44 () (_ BitVec 384))
(declare-fun x42 () (_ BitVec 1))
(declare-fun x41 () (_ BitVec 1))
(declare-fun x39 () (_ BitVec 1))
(declare-fun x37 () (_ BitVec 1))
(declare-fun x36 () (_ BitVec 1))
(declare-fun x35 () (_ BitVec 384))
(declare-fun x33 () (_ BitVec 1))
(declare-fun x32 () (_ BitVec 1))
(declare-fun x31 () (_ BitVec 384))
(declare-fun x30 ((_ BitVec 384) (_ BitVec 384)) (_ BitVec 384))
(declare-fun x29 () (_ BitVec 384))
(declare-fun x28 ((_ BitVec 384) (_ BitVec 384)) (_ BitVec 384))
(declare-fun x27 () (_ BitVec 384))
(declare-fun x26 ((_ BitVec 384)) (_ BitVec 384))
(declare-fun x25 () (_ BitVec 384))
(declare-fun x24 () (_ BitVec 384))
(declare-fun x23 () (_ BitVec 384))
(declare-fun x22 () (Array (_ BitVec 5) (_ BitVec 32)))
(declare-fun x21 () (Array (_ BitVec 4) (_ BitVec 32)))
(declare-fun x20 () (Array (_ BitVec 4) (_ BitVec 32)))
(declare-fun x19 () (Array (_ BitVec 5) (_ BitVec 32)))
(declare-fun x18 () (Array (_ BitVec 5) (_ BitVec 32)))
(declare-fun x17 () (Array (_ BitVec 5) (_ BitVec 32)))
(declare-fun x16 () (Array (_ BitVec 5) (_ BitVec 32)))
(declare-fun x15 () (Array (_ BitVec 5) (_ BitVec 32)))
(declare-fun x14 () (Array (_ BitVec 5) (_ BitVec 32)))
(declare-fun x13 () (Array (_ BitVec 5) (_ BitVec 32)))
(declare-fun x12 () (Array (_ BitVec 5) (_ BitVec 32)))
(declare-fun x11 () (Array (_ BitVec 5) (_ BitVec 32)))
(declare-fun x10 () (Array (_ BitVec 5) (_ BitVec 32)))
(declare-fun x9 () (Array (_ BitVec 5) (_ BitVec 32)))
(declare-fun x8 () (Array (_ BitVec 4) (_ BitVec 32)))
(declare-fun x7 () (Array (_ BitVec 4) (_ BitVec 32)))
(declare-fun x6 () (Array (_ BitVec 4) (_ BitVec 32)))
(declare-fun x5 () (Array (_ BitVec 5) (_ BitVec 32)))
(declare-fun x4 () (Array (_ BitVec 4) (_ BitVec 32)))
(declare-fun x3 () (Array (_ BitVec 4) (_ BitVec 32)))
(declare-fun x2 () (Array (_ BitVec 4) (_ BitVec 32)))
(declare-fun x1 () (Array (_ BitVec 4) (_ BitVec 32)))
(declare-fun x0 () (Array (_ BitVec 4) (_ BitVec 32)))
(declare-fun p261 () Bool)
(declare-fun p259 () Bool)
(declare-fun p257 () Bool)
(declare-fun p255 () Bool)
(declare-fun p253 () Bool)
(declare-fun p251 () Bool)
(declare-fun p249 () Bool)
(declare-fun p247 () Bool)
(declare-fun p245 () Bool)
(declare-fun p243 () Bool)
(declare-fun p237 () Bool)
(declare-fun p235 () Bool)
(declare-fun p230 () Bool)
(declare-fun p227 () Bool)
(declare-fun p222 () Bool)
(declare-fun p220 () Bool)
(declare-fun p218 () Bool)
(declare-fun p216 () Bool)
(declare-fun p214 () Bool)
(declare-fun p212 () Bool)
(declare-fun p210 () Bool)
(declare-fun p205 () Bool)
(declare-fun p203 () Bool)
(declare-fun p199 () Bool)
(declare-fun p197 () Bool)
(declare-fun p194 () Bool)
(declare-fun p190 () Bool)
(declare-fun p188 () Bool)
(declare-fun p185 () Bool)
(declare-fun p183 () Bool)
(declare-fun p179 () Bool)
(declare-fun p177 () Bool)
(declare-fun p175 () Bool)
(declare-fun p173 () Bool)
(declare-fun p167 () Bool)
(declare-fun p165 () Bool)
(declare-fun p163 () Bool)
(declare-fun p158 () Bool)
(declare-fun p153 () Bool)
(declare-fun p151 () Bool)
(declare-fun p148 () Bool)
(declare-fun p146 () Bool)
(declare-fun p144 () Bool)
(declare-fun p142 () Bool)
(declare-fun p140 () Bool)
(declare-fun p138 () Bool)
(declare-fun p136 () Bool)
(declare-fun p134 () Bool)
(declare-fun p129 () Bool)
(declare-fun p118 () Bool)
(declare-fun p116 () Bool)
(declare-fun p113 () Bool)
(declare-fun p78 () Bool)
(declare-fun p76 () Bool)
(declare-fun p72 () Bool)
(declare-fun p70 () Bool)
(declare-fun p68 () Bool)
(declare-fun p66 () Bool)
(declare-fun p62 () Bool)
(declare-fun p60 () Bool)
(declare-fun p58 () Bool)
(declare-fun p56 () Bool)
(declare-fun p53 () Bool)
(declare-fun p43 () Bool)
(declare-fun p40 () Bool)
(declare-fun p38 () Bool)
(declare-fun p34 () Bool)
(assert (= p261 (and p144 p259)))
(assert (= x260 (bvand x143 x258)))
(assert (= p259 (or p146 p257)))
(assert (= x258 (bvor x145 x256)))
(assert (= p257 (and p179 p255)))
(assert (= x256 (bvand x178 x254)))
(assert (= p255 (or (= x35 (_ bv0 384)) p253)))
(assert (= x254 (bvor x180 x252)))
(assert (= p253 (and p218 p251)))
(assert (= x252 (bvand x217 x250)))
(assert (= p251 (or p220 p249)))
(assert (= x250 (bvor x219 x248)))
(assert (= p249 (and p227 p247)))
(assert (= x248 (bvand x226 x246)))
(assert (= p247 (or (= x35 (_ bv0 384)) p245)))
(assert (= x246 (bvor x228 x244)))
(assert (= p245 (and p237 p243)))
(assert (= x244 (bvand x236 x242)))
(assert (= p243 (or (= x31 (_ bv0 384)) (= x239 x240))))
(assert (= x242 (bvor x238 x241)))
(assert (= x241 (ite (= x239 x240) (_ bv1 1) (_ bv0 1))))
(assert (= x240 (x108 x79 x107)))
(assert (= x239 ((_ extract 767 384) x125)))
(assert (= x238 (ite (= x31 (_ bv0 384)) (_ bv1 1) (_ bv0 1))))
(assert (= p237 (or p230 p235)))
(assert (= x236 (bvor x229 x234)))
(assert (= p235 (or (= x50 (_ bv0 384)) (= x232 (_ bv1 384)))))
(assert (= x234 (bvor x231 x233)))
(assert (= x233 (ite (= x232 (_ bv1 384)) (_ bv1 1) (_ bv0 1))))
(assert (= x232 ((_ extract 767 384) x125)))
(assert (= x231 (ite (= x50 (_ bv0 384)) (_ bv1 1) (_ bv0 1))))
(assert (= p230 (not (= x31 (_ bv0 384)))))
(assert (= x229 (bvnot x32)))
(assert (= x228 (ite (= x35 (_ bv0 384)) (_ bv1 1) (_ bv0 1))))
(assert (= p227 (or p222 (= x223 x224))))
(assert (= x226 (bvor x221 x225)))
(assert (= x225 (ite (= x223 x224) (_ bv1 1) (_ bv0 1))))
(assert (= x224 (concat (concat (concat (concat (concat (concat (concat (concat (concat (concat (concat (select x0 (_ bv11 4)) (select x0 (_ bv10 4))) (select x0 (_ bv9 4))) (select x0 (_ bv8 4))) (select x0 (_ bv7 4))) (select x0 (_ bv6 4))) (select x0 (_ bv5 4))) (select x0 (_ bv4 4))) (select x0 (_ bv3 4))) (select x0 (_ bv2 4))) (select x0 (_ bv1 4))) (select x0 (_ bv0 4)))))
(assert (= x223 ((_ extract 767 384) x125)))
(assert (= p222 (not (= x35 (_ bv0 384)))))
(assert (= x221 (bvnot x36)))
(assert (= p220 (and p56 p58)))
(assert (= x219 (bvand x55 x57)))
(assert (= p218 (or p188 p216)))
(assert (= x217 (bvor x187 x215)))
(assert (= p216 (and p194 p214)))
(assert (= x215 (bvand x193 x213)))
(assert (= p214 (or (= x35 (_ bv0 384)) p212)))
(assert (= x213 (bvor x195 x211)))
(assert (= p212 (and p205 p210)))
(assert (= x211 (bvand x204 x209)))
(assert (= p210 (or (= x31 (_ bv0 384)) (= (_ bv1 384) x207))))
(assert (= x209 (bvor x206 x208)))
(assert (= x208 (ite (= (_ bv1 384) x207) (_ bv1 1) (_ bv0 1))))
(assert (= x207 (x108 x79 x107)))
(assert (= x206 (ite (= x31 (_ bv0 384)) (_ bv1 1) (_ bv0 1))))
(assert (= p205 (or p197 p203)))
(assert (= x204 (bvor x196 x202)))
(assert (= p203 (or p199 (= (_ bv1 384) x200))))
(assert (= x202 (bvor x198 x201)))
(assert (= x201 (ite (= (_ bv1 384) x200) (_ bv1 1) (_ bv0 1))))
(assert (= x200 ((_ extract 767 384) x125)))
(assert (= p199 (not (= x50 (_ bv0 384)))))
(assert (= x198 (bvnot x51)))
(assert (= p197 (not (= x31 (_ bv0 384)))))
(assert (= x196 (bvnot x32)))
(assert (= x195 (ite (= x35 (_ bv0 384)) (_ bv1 1) (_ bv0 1))))
(assert (= p194 (or p190 (= x191 x0))))
(assert (= x193 (bvor x189 x192)))
(assert (= x192 (ite (= x191 x0) (_ bv1 1) (_ bv0 1))))
(assert (= (select x191 (_ bv11 4)) (_ bv0 32)))
(assert (= (select x191 (_ bv10 4)) (_ bv0 32)))
(assert (= (select x191 (_ bv9 4)) (_ bv0 32)))
(assert (= (select x191 (_ bv8 4)) (_ bv0 32)))
(assert (= (select x191 (_ bv7 4)) (_ bv0 32)))
(assert (= (select x191 (_ bv6 4)) (_ bv0 32)))
(assert (= (select x191 (_ bv5 4)) (_ bv0 32)))
(assert (= (select x191 (_ bv4 4)) (_ bv0 32)))
(assert (= (select x191 (_ bv3 4)) (_ bv0 32)))
(assert (= (select x191 (_ bv2 4)) (_ bv0 32)))
(assert (= (select x191 (_ bv1 4)) (_ bv0 32)))
(assert (= (select x191 (_ bv0 4)) (_ bv1 32)))
(assert (= (select x191 (_ bv15 4)) (_ bv0 32)))
(assert (= (select x191 (_ bv14 4)) (_ bv0 32)))
(assert (= (select x191 (_ bv13 4)) (_ bv0 32)))
(assert (= (select x191 (_ bv12 4)) (_ bv0 32)))
(assert (= p190 (not (= x35 (_ bv0 384)))))
(assert (= x189 (bvnot x36)))
(assert (= p188 (or p185 (= x35 (_ bv0 384)))))
(assert (= x187 (bvor x184 x186)))
(assert (= x186 (ite (= x35 (_ bv0 384)) (_ bv1 1) (_ bv0 1))))
(assert (= p185 (or (= x50 (_ bv0 384)) p183)))
(assert (= x184 (bvor x181 x182)))
(assert (= p183 (not (= x31 (_ bv0 384)))))
(assert (= x182 (bvnot x32)))
(assert (= x181 (ite (= x50 (_ bv0 384)) (_ bv1 1) (_ bv0 1))))
(assert (= x180 (ite (= x35 (_ bv0 384)) (_ bv1 1) (_ bv0 1))))
(assert (= p179 (or p148 p177)))
(assert (= x178 (bvor x147 x176)))
(assert (= p177 (or (= x35 (_ bv0 384)) p175)))
(assert (= x176 (bvor x149 x174)))
(assert (= p175 (and p167 p173)))
(assert (= x174 (bvand x166 x172)))
(assert (= p173 (or (= x31 (_ bv0 384)) (= x169 x170))))
(assert (= x172 (bvor x168 x171)))
(assert (= x171 (ite (= x169 x170) (_ bv1 1) (_ bv0 1))))
(assert (= x170 (x108 x79 x107)))
(assert (= x169 (concat (concat (concat (concat (concat (concat (concat (concat (concat (concat (concat (select x0 (_ bv11 4)) (select x0 (_ bv10 4))) (select x0 (_ bv9 4))) (select x0 (_ bv8 4))) (select x0 (_ bv7 4))) (select x0 (_ bv6 4))) (select x0 (_ bv5 4))) (select x0 (_ bv4 4))) (select x0 (_ bv3 4))) (select x0 (_ bv2 4))) (select x0 (_ bv1 4))) (select x0 (_ bv0 4)))))
(assert (= x168 (ite (= x31 (_ bv0 384)) (_ bv1 1) (_ bv0 1))))
(assert (= p167 (or p151 p165)))
(assert (= x166 (bvor x150 x164)))
(assert (= p165 (and p158 p163)))
(assert (= x164 (bvand x157 x162)))
(assert (= p163 (or (= x50 (_ bv0 384)) (= x160 (_ bv1 384)))))
(assert (= x162 (bvor x159 x161)))
(assert (= x161 (ite (= x160 (_ bv1 384)) (_ bv1 1) (_ bv0 1))))
(assert (= x160 (concat (concat (concat (concat (concat (concat (concat (concat (concat (concat (concat (select x0 (_ bv11 4)) (select x0 (_ bv10 4))) (select x0 (_ bv9 4))) (select x0 (_ bv8 4))) (select x0 (_ bv7 4))) (select x0 (_ bv6 4))) (select x0 (_ bv5 4))) (select x0 (_ bv4 4))) (select x0 (_ bv3 4))) (select x0 (_ bv2 4))) (select x0 (_ bv1 4))) (select x0 (_ bv0 4)))))
(assert (= x159 (ite (= x50 (_ bv0 384)) (_ bv1 1) (_ bv0 1))))
(assert (= p158 (or p153 (= x154 x155))))
(assert (= x157 (bvor x152 x156)))
(assert (= x156 (ite (= x154 x155) (_ bv1 1) (_ bv0 1))))
(assert (= x155 ((_ extract 767 384) x125)))
(assert (= x154 (concat (concat (concat (concat (concat (concat (concat (concat (concat (concat (concat (select x0 (_ bv11 4)) (select x0 (_ bv10 4))) (select x0 (_ bv9 4))) (select x0 (_ bv8 4))) (select x0 (_ bv7 4))) (select x0 (_ bv6 4))) (select x0 (_ bv5 4))) (select x0 (_ bv4 4))) (select x0 (_ bv3 4))) (select x0 (_ bv2 4))) (select x0 (_ bv1 4))) (select x0 (_ bv0 4)))))
(assert (= p153 (not (= x50 (_ bv0 384)))))
(assert (= x152 (bvnot x51)))
(assert (= p151 (not (= x31 (_ bv0 384)))))
(assert (= x150 (bvnot x32)))
(assert (= x149 (ite (= x35 (_ bv0 384)) (_ bv1 1) (_ bv0 1))))
(assert (= p148 (not (= x35 (_ bv0 384)))))
(assert (= x147 (bvnot x36)))
(assert (= p146 (and p34 p38)))
(assert (= x145 (bvand x33 x37)))
(assert (= p144 (or p76 p142)))
(assert (= x143 (bvor x75 x141)))
(assert (= p142 (and p113 p140)))
(assert (= x141 (bvand x112 x139)))
(assert (= p140 (or (= x35 (_ bv0 384)) p138)))
(assert (= x139 (bvor x114 x137)))
(assert (= p138 (or p116 p136)))
(assert (= x137 (bvor x115 x135)))
(assert (= p136 (and p129 p134)))
(assert (= x135 (bvand x128 x133)))
(assert (= p134 (or (= x50 (_ bv0 384)) (= x131 (_ bv1 384)))))
(assert (= x133 (bvor x130 x132)))
(assert (= x132 (ite (= x131 (_ bv1 384)) (_ bv1 1) (_ bv0 1))))
(assert (= x131 (x108 x79 x107)))
(assert (= x130 (ite (= x50 (_ bv0 384)) (_ bv1 1) (_ bv0 1))))
(assert (= p129 (or p118 (= x119 x126))))
(assert (= x128 (bvor x117 x127)))
(assert (= x127 (ite (= x119 x126) (_ bv1 1) (_ bv0 1))))
(assert (= x126 ((_ extract 767 384) x125)))
(assert (= x125 (x124 x123)))
(assert (= x123 (concat x122 (concat x121 x120))))
(assert (= x122 (concat (concat (concat (concat (concat (concat (concat (concat (concat (concat (concat (select x2 (_ bv11 4)) (select x2 (_ bv10 4))) (select x2 (_ bv9 4))) (select x2 (_ bv8 4))) (select x2 (_ bv7 4))) (select x2 (_ bv6 4))) (select x2 (_ bv5 4))) (select x2 (_ bv4 4))) (select x2 (_ bv3 4))) (select x2 (_ bv2 4))) (select x2 (_ bv1 4))) (select x2 (_ bv0 4)))))
(assert (= x121 (concat (concat (concat (concat (concat (concat (concat (concat (concat (concat (concat (select x3 (_ bv11 4)) (select x3 (_ bv10 4))) (select x3 (_ bv9 4))) (select x3 (_ bv8 4))) (select x3 (_ bv7 4))) (select x3 (_ bv6 4))) (select x3 (_ bv5 4))) (select x3 (_ bv4 4))) (select x3 (_ bv3 4))) (select x3 (_ bv2 4))) (select x3 (_ bv1 4))) (select x3 (_ bv0 4)))))
(assert (= x120 (concat (concat (concat (concat (concat (concat (concat (concat (concat (concat (concat (select x4 (_ bv11 4)) (select x4 (_ bv10 4))) (select x4 (_ bv9 4))) (select x4 (_ bv8 4))) (select x4 (_ bv7 4))) (select x4 (_ bv6 4))) (select x4 (_ bv5 4))) (select x4 (_ bv4 4))) (select x4 (_ bv3 4))) (select x4 (_ bv2 4))) (select x4 (_ bv1 4))) (select x4 (_ bv0 4)))))
(assert (= x119 (x108 x79 x107)))
(assert (= p118 (not (= x50 (_ bv0 384)))))
(assert (= x117 (bvnot x51)))
(assert (= p116 (not (= x31 (_ bv0 384)))))
(assert (= x115 (bvnot x32)))
(assert (= x114 (ite (= x35 (_ bv0 384)) (_ bv1 1) (_ bv0 1))))
(assert (= p113 (or p78 (= x109 x110))))
(assert (= x112 (bvor x77 x111)))
(assert (= x111 (ite (= x109 x110) (_ bv1 1) (_ bv0 1))))
(assert (= x110 (concat (concat (concat (concat (concat (concat (concat (concat (concat (concat (concat (select x0 (_ bv11 4)) (select x0 (_ bv10 4))) (select x0 (_ bv9 4))) (select x0 (_ bv8 4))) (select x0 (_ bv7 4))) (select x0 (_ bv6 4))) (select x0 (_ bv5 4))) (select x0 (_ bv4 4))) (select x0 (_ bv3 4))) (select x0 (_ bv2 4))) (select x0 (_ bv1 4))) (select x0 (_ bv0 4)))))
(assert (= x109 (x108 x79 x107)))
(assert (= x107 (x30 x97 x106)))
(assert (= x106 (x28 x102 x105)))
(assert (= x105 (x28 x103 x104)))
(assert (= x104 (x26 x87)))
(assert (= x103 (x30 x23 x29)))
(assert (= x102 (x30 x100 x101)))
(assert (= x101 (x30 x44 x49)))
(assert (= x100 (x83 x98 x99)))
(assert (= x99 (concat (concat (concat (concat (concat (concat (concat (concat (concat (concat (concat (select x3 (_ bv11 4)) (select x3 (_ bv10 4))) (select x3 (_ bv9 4))) (select x3 (_ bv8 4))) (select x3 (_ bv7 4))) (select x3 (_ bv6 4))) (select x3 (_ bv5 4))) (select x3 (_ bv4 4))) (select x3 (_ bv3 4))) (select x3 (_ bv2 4))) (select x3 (_ bv1 4))) (select x3 (_ bv0 4)))))
(assert (= x98 (concat (concat (concat (concat (concat (concat (concat (concat (concat (concat (concat (select x3 (_ bv11 4)) (select x3 (_ bv10 4))) (select x3 (_ bv9 4))) (select x3 (_ bv8 4))) (select x3 (_ bv7 4))) (select x3 (_ bv6 4))) (select x3 (_ bv5 4))) (select x3 (_ bv4 4))) (select x3 (_ bv3 4))) (select x3 (_ bv2 4))) (select x3 (_ bv1 4))) (select x3 (_ bv0 4)))))
(assert (= x97 (x28 x80 x96)))
(assert (= x96 (x30 x94 x95)))
(assert (= x95 (x30 x91 x92)))
(assert (= x94 (x30 x89 x93)))
(assert (= x93 (x30 x91 x92)))
(assert (= x92 (x28 x86 x88)))
(assert (= x91 (x26 x90)))
(assert (= x90 (x30 x44 x49)))
(assert (= x89 (x28 x86 x88)))
(assert (= x88 (x26 x87)))
(assert (= x87 (x30 x23 x29)))
(assert (= x86 (x30 x84 x85)))
(assert (= x85 (x30 x23 x29)))
(assert (= x84 (x83 x81 x82)))
(assert (= x82 (concat (concat (concat (concat (concat (concat (concat (concat (concat (concat (concat (select x4 (_ bv11 4)) (select x4 (_ bv10 4))) (select x4 (_ bv9 4))) (select x4 (_ bv8 4))) (select x4 (_ bv7 4))) (select x4 (_ bv6 4))) (select x4 (_ bv5 4))) (select x4 (_ bv4 4))) (select x4 (_ bv3 4))) (select x4 (_ bv2 4))) (select x4 (_ bv1 4))) (select x4 (_ bv0 4)))))
(assert (= x81 (concat (concat (concat (concat (concat (concat (concat (concat (concat (concat (concat (select x4 (_ bv11 4)) (select x4 (_ bv10 4))) (select x4 (_ bv9 4))) (select x4 (_ bv8 4))) (select x4 (_ bv7 4))) (select x4 (_ bv6 4))) (select x4 (_ bv5 4))) (select x4 (_ bv4 4))) (select x4 (_ bv3 4))) (select x4 (_ bv2 4))) (select x4 (_ bv1 4))) (select x4 (_ bv0 4)))))
(assert (= x80 (x30 x44 x49)))
(assert (= x79 (bvneg (_ bv340282367000166625977638945021017194497 384))))
(assert (= p78 (not (= x35 (_ bv0 384)))))
(assert (= x77 (bvnot x36)))
(assert (= p76 (or (= x31 (_ bv0 384)) (= x35 (_ bv0 384)))))
(assert (= x75 (bvor x73 x74)))
(assert (= x74 (ite (= x35 (_ bv0 384)) (_ bv1 1) (_ bv0 1))))
(assert (= x73 (ite (= x31 (_ bv0 384)) (_ bv1 1) (_ bv0 1))))
(assert (= p72 (or p62 p70)))
(assert (= x71 (bvor x61 x69)))
(assert (= p70 (and p66 p68)))
(assert (= x69 (bvand x65 x67)))
(assert (= p68 (not (= x35 (_ bv0 384)))))
(assert (= x67 (bvnot x36)))
(assert (= p66 (and (= x50 (_ bv0 384)) (= x31 (_ bv0 384)))))
(assert (= x65 (bvand x63 x64)))
(assert (= x64 (ite (= x31 (_ bv0 384)) (_ bv1 1) (_ bv0 1))))
(assert (= x63 (ite (= x50 (_ bv0 384)) (_ bv1 1) (_ bv0 1))))
(assert (= p62 (or p43 p60)))
(assert (= x61 (bvor x42 x59)))
(assert (= p60 (and p56 p58)))
(assert (= x59 (bvand x55 x57)))
(assert (= p58 (not (= x35 (_ bv0 384)))))
(assert (= x57 (bvnot x36)))
(assert (= p56 (and p53 (= x31 (_ bv0 384)))))
(assert (= x55 (bvand x52 x54)))
(assert (= x54 (ite (= x31 (_ bv0 384)) (_ bv1 1) (_ bv0 1))))
(assert (= p53 (not (= x50 (_ bv0 384)))))
(assert (= x52 (bvnot x51)))
(assert (= x51 (ite (= x50 (_ bv0 384)) (_ bv1 1) (_ bv0 1))))
(assert (= x50 (x30 x44 x49)))
(assert (= x49 (x28 x45 x48)))
(assert (= x48 (x28 x46 x47)))
(assert (= x47 (x26 x25)))
(assert (= x46 (concat (concat (concat (concat (concat (concat (concat (concat (concat (concat (concat (select x2 (_ bv11 4)) (select x2 (_ bv10 4))) (select x2 (_ bv9 4))) (select x2 (_ bv8 4))) (select x2 (_ bv7 4))) (select x2 (_ bv6 4))) (select x2 (_ bv5 4))) (select x2 (_ bv4 4))) (select x2 (_ bv3 4))) (select x2 (_ bv2 4))) (select x2 (_ bv1 4))) (select x2 (_ bv0 4)))))
(assert (= x45 (concat (concat (concat (concat (concat (concat (concat (concat (concat (concat (concat (select x0 (_ bv11 4)) (select x0 (_ bv10 4))) (select x0 (_ bv9 4))) (select x0 (_ bv8 4))) (select x0 (_ bv7 4))) (select x0 (_ bv6 4))) (select x0 (_ bv5 4))) (select x0 (_ bv4 4))) (select x0 (_ bv3 4))) (select x0 (_ bv2 4))) (select x0 (_ bv1 4))) (select x0 (_ bv0 4)))))
(assert (= x44 (concat (concat (concat (concat (concat (concat (concat (concat (concat (concat (concat (select x3 (_ bv11 4)) (select x3 (_ bv10 4))) (select x3 (_ bv9 4))) (select x3 (_ bv8 4))) (select x3 (_ bv7 4))) (select x3 (_ bv6 4))) (select x3 (_ bv5 4))) (select x3 (_ bv4 4))) (select x3 (_ bv3 4))) (select x3 (_ bv2 4))) (select x3 (_ bv1 4))) (select x3 (_ bv0 4)))))
(assert (= p43 (or p40 (= x35 (_ bv0 384)))))
(assert (= x42 (bvor x39 x41)))
(assert (= x41 (ite (= x35 (_ bv0 384)) (_ bv1 1) (_ bv0 1))))
(assert (= p40 (and p34 p38)))
(assert (= x39 (bvand x33 x37)))
(assert (= p38 (not (= x35 (_ bv0 384)))))
(assert (= x37 (bvnot x36)))
(assert (= x36 (ite (= x35 (_ bv0 384)) (_ bv1 1) (_ bv0 1))))
(assert (= x35 (concat (concat (concat (concat (concat (concat (concat (concat (concat (concat (concat (select x2 (_ bv11 4)) (select x2 (_ bv10 4))) (select x2 (_ bv9 4))) (select x2 (_ bv8 4))) (select x2 (_ bv7 4))) (select x2 (_ bv6 4))) (select x2 (_ bv5 4))) (select x2 (_ bv4 4))) (select x2 (_ bv3 4))) (select x2 (_ bv2 4))) (select x2 (_ bv1 4))) (select x2 (_ bv0 4)))))
(assert (= p34 (not (= x31 (_ bv0 384)))))
(assert (= x33 (bvnot x32)))
(assert (= x32 (ite (= x31 (_ bv0 384)) (_ bv1 1) (_ bv0 1))))
(assert (= x31 (x30 x23 x29)))
(assert (= x29 (x28 x24 x27)))
(assert (= x27 (x26 x25)))
(assert (= x25 (concat (concat (concat (concat (concat (concat (concat (concat (concat (concat (concat (select x2 (_ bv11 4)) (select x2 (_ bv10 4))) (select x2 (_ bv9 4))) (select x2 (_ bv8 4))) (select x2 (_ bv7 4))) (select x2 (_ bv6 4))) (select x2 (_ bv5 4))) (select x2 (_ bv4 4))) (select x2 (_ bv3 4))) (select x2 (_ bv2 4))) (select x2 (_ bv1 4))) (select x2 (_ bv0 4)))))
(assert (= x24 (concat (concat (concat (concat (concat (concat (concat (concat (concat (concat (concat (select x1 (_ bv11 4)) (select x1 (_ bv10 4))) (select x1 (_ bv9 4))) (select x1 (_ bv8 4))) (select x1 (_ bv7 4))) (select x1 (_ bv6 4))) (select x1 (_ bv5 4))) (select x1 (_ bv4 4))) (select x1 (_ bv3 4))) (select x1 (_ bv2 4))) (select x1 (_ bv1 4))) (select x1 (_ bv0 4)))))
(assert (= x23 (concat (concat (concat (concat (concat (concat (concat (concat (concat (concat (concat (select x4 (_ bv11 4)) (select x4 (_ bv10 4))) (select x4 (_ bv9 4))) (select x4 (_ bv8 4))) (select x4 (_ bv7 4))) (select x4 (_ bv6 4))) (select x4 (_ bv5 4))) (select x4 (_ bv4 4))) (select x4 (_ bv3 4))) (select x4 (_ bv2 4))) (select x4 (_ bv1 4))) (select x4 (_ bv0 4)))))
(assert true)
(assert (= (select x22 (_ bv31 5)) (_ bv0 32)))
(assert (= (select x22 (_ bv30 5)) (_ bv0 32)))
(assert (= (select x22 (_ bv29 5)) (_ bv0 32)))
(assert (= (select x22 (_ bv28 5)) (_ bv0 32)))
(assert (= (select x22 (_ bv27 5)) (_ bv0 32)))
(assert (= (select x22 (_ bv26 5)) (_ bv0 32)))
(assert (= (select x22 (_ bv25 5)) (_ bv0 32)))
(assert (= (select x22 (_ bv24 5)) (_ bv0 32)))
(assert (= (select x21 (_ bv15 4)) (_ bv0 32)))
(assert (= (select x21 (_ bv14 4)) (_ bv0 32)))
(assert (= (select x21 (_ bv13 4)) (_ bv0 32)))
(assert (= (select x21 (_ bv12 4)) (_ bv0 32)))
(assert (= (select x20 (_ bv15 4)) (_ bv0 32)))
(assert (= (select x20 (_ bv14 4)) (_ bv0 32)))
(assert (= (select x20 (_ bv13 4)) (_ bv0 32)))
(assert (= (select x20 (_ bv12 4)) (_ bv0 32)))
(assert (= (select x19 (_ bv31 5)) (_ bv0 32)))
(assert (= (select x19 (_ bv30 5)) (_ bv0 32)))
(assert (= (select x19 (_ bv29 5)) (_ bv0 32)))
(assert (= (select x19 (_ bv28 5)) (_ bv0 32)))
(assert (= (select x19 (_ bv27 5)) (_ bv0 32)))
(assert (= (select x19 (_ bv26 5)) (_ bv0 32)))
(assert (= (select x19 (_ bv25 5)) (_ bv0 32)))
(assert (= (select x19 (_ bv24 5)) (_ bv0 32)))
(assert (= (select x18 (_ bv31 5)) (_ bv0 32)))
(assert (= (select x18 (_ bv30 5)) (_ bv0 32)))
(assert (= (select x18 (_ bv29 5)) (_ bv0 32)))
(assert (= (select x18 (_ bv28 5)) (_ bv0 32)))
(assert (= (select x18 (_ bv27 5)) (_ bv0 32)))
(assert (= (select x18 (_ bv26 5)) (_ bv0 32)))
(assert (= (select x18 (_ bv25 5)) (_ bv0 32)))
(assert (= (select x18 (_ bv24 5)) (_ bv0 32)))
(assert (= (select x17 (_ bv31 5)) (_ bv0 32)))
(assert (= (select x17 (_ bv30 5)) (_ bv0 32)))
(assert (= (select x17 (_ bv29 5)) (_ bv0 32)))
(assert (= (select x17 (_ bv28 5)) (_ bv0 32)))
(assert (= (select x17 (_ bv27 5)) (_ bv0 32)))
(assert (= (select x17 (_ bv26 5)) (_ bv0 32)))
(assert (= (select x17 (_ bv25 5)) (_ bv0 32)))
(assert (= (select x17 (_ bv24 5)) (_ bv0 32)))
(assert (= (select x16 (_ bv31 5)) (_ bv0 32)))
(assert (= (select x16 (_ bv30 5)) (_ bv0 32)))
(assert (= (select x16 (_ bv29 5)) (_ bv0 32)))
(assert (= (select x16 (_ bv28 5)) (_ bv0 32)))
(assert (= (select x16 (_ bv27 5)) (_ bv0 32)))
(assert (= (select x16 (_ bv26 5)) (_ bv0 32)))
(assert (= (select x16 (_ bv25 5)) (_ bv0 32)))
(assert (= (select x16 (_ bv24 5)) (_ bv0 32)))
(assert (= (select x15 (_ bv31 5)) (_ bv0 32)))
(assert (= (select x15 (_ bv30 5)) (_ bv0 32)))
(assert (= (select x15 (_ bv29 5)) (_ bv0 32)))
(assert (= (select x15 (_ bv28 5)) (_ bv0 32)))
(assert (= (select x15 (_ bv27 5)) (_ bv0 32)))
(assert (= (select x15 (_ bv26 5)) (_ bv0 32)))
(assert (= (select x15 (_ bv25 5)) (_ bv0 32)))
(assert (= (select x15 (_ bv24 5)) (_ bv0 32)))
(assert (= (select x14 (_ bv31 5)) (_ bv0 32)))
(assert (= (select x14 (_ bv30 5)) (_ bv0 32)))
(assert (= (select x14 (_ bv29 5)) (_ bv0 32)))
(assert (= (select x14 (_ bv28 5)) (_ bv0 32)))
(assert (= (select x14 (_ bv27 5)) (_ bv0 32)))
(assert (= (select x14 (_ bv26 5)) (_ bv0 32)))
(assert (= (select x14 (_ bv25 5)) (_ bv0 32)))
(assert (= (select x14 (_ bv24 5)) (_ bv0 32)))
(assert (= (select x13 (_ bv31 5)) (_ bv0 32)))
(assert (= (select x13 (_ bv30 5)) (_ bv0 32)))
(assert (= (select x13 (_ bv29 5)) (_ bv0 32)))
(assert (= (select x13 (_ bv28 5)) (_ bv0 32)))
(assert (= (select x13 (_ bv27 5)) (_ bv0 32)))
(assert (= (select x13 (_ bv26 5)) (_ bv0 32)))
(assert (= (select x13 (_ bv25 5)) (_ bv0 32)))
(assert (= (select x13 (_ bv24 5)) (_ bv0 32)))
(assert (= (select x12 (_ bv31 5)) (_ bv0 32)))
(assert (= (select x12 (_ bv30 5)) (_ bv0 32)))
(assert (= (select x12 (_ bv29 5)) (_ bv0 32)))
(assert (= (select x12 (_ bv28 5)) (_ bv0 32)))
(assert (= (select x12 (_ bv27 5)) (_ bv0 32)))
(assert (= (select x12 (_ bv26 5)) (_ bv0 32)))
(assert (= (select x12 (_ bv25 5)) (_ bv0 32)))
(assert (= (select x12 (_ bv24 5)) (_ bv0 32)))
(assert (= (select x11 (_ bv31 5)) (_ bv0 32)))
(assert (= (select x11 (_ bv30 5)) (_ bv0 32)))
(assert (= (select x11 (_ bv29 5)) (_ bv0 32)))
(assert (= (select x11 (_ bv28 5)) (_ bv0 32)))
(assert (= (select x11 (_ bv27 5)) (_ bv0 32)))
(assert (= (select x11 (_ bv26 5)) (_ bv0 32)))
(assert (= (select x11 (_ bv25 5)) (_ bv0 32)))
(assert (= (select x11 (_ bv24 5)) (_ bv0 32)))
(assert (= (select x10 (_ bv31 5)) (_ bv0 32)))
(assert (= (select x10 (_ bv30 5)) (_ bv0 32)))
(assert (= (select x10 (_ bv29 5)) (_ bv0 32)))
(assert (= (select x10 (_ bv28 5)) (_ bv0 32)))
(assert (= (select x10 (_ bv27 5)) (_ bv0 32)))
(assert (= (select x10 (_ bv26 5)) (_ bv0 32)))
(assert (= (select x10 (_ bv25 5)) (_ bv0 32)))
(assert (= (select x10 (_ bv24 5)) (_ bv0 32)))
(assert (= (select x9 (_ bv31 5)) (_ bv0 32)))
(assert (= (select x9 (_ bv30 5)) (_ bv0 32)))
(assert (= (select x9 (_ bv29 5)) (_ bv0 32)))
(assert (= (select x9 (_ bv28 5)) (_ bv0 32)))
(assert (= (select x9 (_ bv27 5)) (_ bv0 32)))
(assert (= (select x9 (_ bv26 5)) (_ bv0 32)))
(assert (= (select x9 (_ bv25 5)) (_ bv0 32)))
(assert (= (select x9 (_ bv24 5)) (_ bv0 32)))
(assert (= (select x8 (_ bv15 4)) (_ bv0 32)))
(assert (= (select x8 (_ bv14 4)) (_ bv0 32)))
(assert (= (select x8 (_ bv13 4)) (_ bv0 32)))
(assert (= (select x8 (_ bv12 4)) (_ bv0 32)))
(assert (= (select x7 (_ bv15 4)) (_ bv0 32)))
(assert (= (select x7 (_ bv14 4)) (_ bv0 32)))
(assert (= (select x7 (_ bv13 4)) (_ bv0 32)))
(assert (= (select x7 (_ bv12 4)) (_ bv0 32)))
(assert (= (select x6 (_ bv15 4)) (_ bv0 32)))
(assert (= (select x6 (_ bv14 4)) (_ bv0 32)))
(assert (= (select x6 (_ bv13 4)) (_ bv0 32)))
(assert (= (select x6 (_ bv12 4)) (_ bv0 32)))
(assert (= (select x5 (_ bv31 5)) (_ bv0 32)))
(assert (= (select x5 (_ bv30 5)) (_ bv0 32)))
(assert (= (select x5 (_ bv29 5)) (_ bv0 32)))
(assert (= (select x5 (_ bv28 5)) (_ bv0 32)))
(assert (= (select x5 (_ bv27 5)) (_ bv0 32)))
(assert (= (select x5 (_ bv26 5)) (_ bv0 32)))
(assert (= (select x5 (_ bv25 5)) (_ bv0 32)))
(assert (= (select x5 (_ bv24 5)) (_ bv0 32)))
(assert (= (select x4 (_ bv15 4)) (_ bv0 32)))
(assert (= (select x4 (_ bv14 4)) (_ bv0 32)))
(assert (= (select x4 (_ bv13 4)) (_ bv0 32)))
(assert (= (select x4 (_ bv12 4)) (_ bv0 32)))
(assert (= (select x3 (_ bv15 4)) (_ bv0 32)))
(assert (= (select x3 (_ bv14 4)) (_ bv0 32)))
(assert (= (select x3 (_ bv13 4)) (_ bv0 32)))
(assert (= (select x3 (_ bv12 4)) (_ bv0 32)))
(assert (= (select x2 (_ bv15 4)) (_ bv0 32)))
(assert (= (select x2 (_ bv14 4)) (_ bv0 32)))
(assert (= (select x2 (_ bv13 4)) (_ bv0 32)))
(assert (= (select x2 (_ bv12 4)) (_ bv0 32)))
(assert (= (select x1 (_ bv15 4)) (_ bv0 32)))
(assert (= (select x1 (_ bv14 4)) (_ bv0 32)))
(assert (= (select x1 (_ bv13 4)) (_ bv0 32)))
(assert (= (select x1 (_ bv12 4)) (_ bv0 32)))
(assert (= (select x0 (_ bv15 4)) (_ bv0 32)))
(assert (= (select x0 (_ bv14 4)) (_ bv0 32)))
(assert (= (select x0 (_ bv13 4)) (_ bv0 32)))
(assert (= (select x0 (_ bv12 4)) (_ bv0 32)))
(assert (not (=> p72 p261)))
(check-sat)
(exit)
